<?xml version = "1.0" encoding="UTF-8" standalone="yes"?>
<CPLEXSolution version="1.2">
 <header
   problemName="1_gamma__E_3_2_2"
   solutionName="incumbent"
   solutionIndex="-1"
   objectiveValue="3"
   solutionTypeValue="3"
   solutionTypeString="primal"
   solutionStatusValue="101"
   solutionStatusString="integer optimal solution"
   solutionMethodString="mip"
   primalFeasible="1"
   dualFeasible="1"
   MIPNodes="0"
   MIPIterations="5"
   writeLevel="1"/>
 <quality
   epInt="1.0000000000000001e-05"
   epRHS="9.9999999999999995e-07"
   maxIntInfeas="0"
   maxPrimalInfeas="0"
   maxX="3"
   maxSlack="0"/>
 <linearConstraints>
  <constraint name="R_def" index="0" slack="0"/>
  <constraint name="val_cible" index="1" slack="0"/>
  <constraint name="BkI_3_0" index="2" slack="0"/>
  <constraint name="BkI_3_1" index="3" slack="0"/>
  <constraint name="BkI_3_2" index="4" slack="0"/>
  <constraint name="BkI_5_0" index="5" slack="0"/>
  <constraint name="BkI_5_1" index="6" slack="0"/>
  <constraint name="BkI_5_2" index="7" slack="0"/>
  <constraint name="BkI_6_0" index="8" slack="0"/>
  <constraint name="BkI_6_1" index="9" slack="0"/>
  <constraint name="BkI_6_2" index="10" slack="0"/>
 </linearConstraints>
 <variables>
  <variable name="R" index="0" value="3"/>
  <variable name="Q012" index="1" value="1"/>
  <variable name="Q000" index="2" value="1"/>
  <variable name="P000" index="3" value="-0"/>
  <variable name="Q001" index="4" value="-0"/>
  <variable name="P001" index="5" value="1"/>
  <variable name="Q002" index="6" value="-0"/>
  <variable name="P002" index="7" value="0"/>
  <variable name="Q010" index="8" value="-0"/>
  <variable name="P010" index="9" value="1"/>
  <variable name="Q011" index="10" value="-0"/>
  <variable name="P011" index="11" value="-0"/>
  <variable name="Q020" index="12" value="-0"/>
  <variable name="P020" index="13" value="0"/>
  <variable name="Q021" index="14" value="1"/>
  <variable name="Q022" index="15" value="-0"/>
  <variable name="P022" index="16" value="1"/>
 </variables>
 <objectiveValues>
  <objective index="0" name="" value="3"/>
 </objectiveValues>
</CPLEXSolution>
